nbObj= 60;
Capacity= 137;
Profit =[ 39,47,64,15,54,92,47,91,64,47,62,89,94,74,102,52,75,98,76,42,69,74,84,53,22,85,48,53,99,54,69,108,107,86,20,29,30,42,104,63,27,31,52,106,94,90,67,43,104,58,92,50,76,77,52,63,49,99,67,95];
Weight =[ 15,21,30,7, 35,47,32,45,41,30,40,47,30,43,43, 25,50,38,57,36,38,45,58,34,18,28,31,25,28,32,40, 30, 46,34,10,15,18,28, 53,44,13,11,22, 36,36,67,37,29, 38,42,45,31,53,58,12,31,34,43,46,35];
